% Número de LINACs
m = 10;

% Capacidad diaria de cada LINAC (en intervalos de 15 minutos)
disponible = [| 20, 24, 22, 26, 24, 30, 22,   32, 36, 30, 32, 34, 38, 40, 48, 48, 48, 48, 48, 48, 48
              | 22, 26, 28, 24, 30, 34, 28,   38, 42, 36, 40, 42, 40, 44, 48, 48, 48, 48, 48, 48, 48
              | 24, 28, 24, 30, 28, 34, 28,   38, 44, 40, 42, 44, 40, 46, 48, 48, 48, 48, 48, 48, 48
              | 26, 24, 28, 30, 28, 34, 26,   40, 42, 44, 40, 44, 42, 46, 48, 48, 48, 48, 48, 48, 48
              | 22, 28, 26, 24, 28, 24, 32,   40, 44, 42, 40, 44, 40, 46, 48, 48, 48, 48, 48, 48, 48
              | 24, 28, 30, 28, 26, 32, 28,   42, 40, 42, 46, 40, 42, 46, 48, 48, 48, 48, 48, 48, 48
              | 28, 30, 26, 32, 30, 34, 28,   42, 44, 46, 44, 46, 40, 46, 48, 48, 48, 48, 48, 48, 48
              | 26, 30, 28, 32, 30, 36, 28,   46, 44, 46, 42, 46, 44, 48, 48, 48, 48, 48, 48, 48, 48
              | 30, 26, 30, 32, 28, 34, 28,   44, 42, 44, 46, 44, 42, 48, 48, 48, 48, 48, 48, 48, 48
              | 32, 30, 28, 34, 30, 36, 32,   48, 46, 44, 48, 46, 44, 48, 48, 48, 48, 48, 48, 48, 48 |];

% Número de nuevos pacientes
paciente = 20;

% Día laborable en que se hizo la solicitud (1=lunes, 5=viernes)
solicitud = [1, 2, 3, 4, 5, 1, 2, 3, 4, 5, 2, 3, 4, 5, 1, 2, 3, 4, 5, 1];

% Número de sesiones por paciente
sesion = 8;

% Duración de cada sesión (en múltiplos de 15 minutos)
duracion = 
 [| 3, 3, 4, 3, 4, 3, 4, 5
  | 4, 3, 4, 3, 4, 5, 3, 4
  | 5, 4, 3, 4, 5, 3, 4, 3
  | 3, 5, 4, 3, 4, 3, 5, 4
  | 4, 3, 5, 4, 3, 5, 3, 4
  | 3, 4, 3, 5, 4, 3, 5, 3
  | 4, 3, 5, 4, 5, 3, 4, 5
  | 3, 5, 4, 3, 5, 4, 3, 5
  | 5, 4, 3, 5, 4, 3, 5, 4
  | 4, 5, 3, 4, 3, 4, 5, 3
  | 5, 4, 3, 4, 5, 3, 5, 4
  | 3, 4, 5, 3, 4, 5, 3, 4
  | 5, 4, 3, 4, 5, 3, 5, 3
  | 4, 3, 5, 4, 5, 3, 4, 5
  | 3, 5, 4, 5, 4, 3, 5, 3
  | 5, 3, 4, 5, 3, 5, 4, 3
  | 4, 5, 4, 3, 5, 4, 5, 3
  | 5, 4, 3, 5, 4, 3, 4, 5
  | 4, 3, 5, 4, 3, 5, 4, 5
  | 3, 5, 4, 5, 3, 4, 5, 4 |];

% Número de días de separación ideal entre sesiones
separacion = array2d(1..paciente, 2..sesion, 
  [ 2, 3, 2, 4, 3, 5, 4,
    2, 3, 5, 2, 3, 4, 3,
    1, 2, 3, 4, 2, 5, 4,
    3, 2, 4, 3, 2, 5, 4,
    2, 4, 3, 2, 4, 5, 3,
    1, 3, 5, 2, 4, 3, 2,
    4, 3, 2, 4, 5, 3, 4,
    3, 2, 4, 3, 5, 2, 4,
    2, 5, 4, 3, 2, 4, 3,
    3, 4, 5, 2, 4, 3, 2,
    2, 3, 4, 5, 3, 2, 4,
    3, 2, 4, 3, 5, 2, 4,
    4, 3, 2, 5, 4, 3, 5,
    2, 4, 5, 3, 2, 5, 4,
    3, 4, 3, 5, 2, 3, 5,
    4, 2, 3, 5, 4, 3, 5,
    3, 5, 4, 3, 2, 4, 5,
    4, 2, 5, 3, 4, 5, 2,
    3, 4, 3, 5, 2, 4, 5,
    4, 5, 2, 3, 4, 2, 5 ]);